2025-10-18 23:47:40,911 - INFO - 📌 第一个 epoch：默认所有模块使用 checkpoint
2025-10-18 23:47:42,050 - INFO - Epoch 1 completed in 1.143645 seconds
2025-10-18 23:47:42,533 - INFO - torch.cuda.max_memory_reserved() : 7.45703125
2025-10-18 23:47:43,128 - INFO - 
[🔁 拟合反向传播时间模型]
2025-10-18 23:47:43,128 - INFO - 总反向传播时间: 0.589929s
2025-10-18 23:47:43,128 - INFO - 拟合模型: backward_total ≈ 2 × (A + B) + b
2025-10-18 23:47:43,128 - INFO - A = 0.979980, B = 0.018062, b = -0.408113s
2025-10-18 23:47:43,152 - INFO - Set parameter LicenseID to value 2706656
2025-10-18 23:47:43,157 - INFO - Set parameter LogToConsole to value 1
2025-10-18 23:47:43,158 - INFO - Set parameter LogFile to value ""
2025-10-18 23:47:43,158 - INFO - Set parameter Threads to value 12
2025-10-18 23:47:43,158 - INFO - Set parameter TimeLimit to value 3600
2025-10-18 23:47:43,158 - INFO - Set parameter OptimalityTol to value 0.0001
2025-10-18 23:47:43,158 - INFO - Set parameter IntFeasTol to value 1e-05
2025-10-18 23:47:43,158 - INFO - Set parameter StartNodeLimit to value 10000000
2025-10-18 23:47:43,210 - INFO - Set parameter TimeLimit to value 3600
2025-10-18 23:47:43,211 - INFO - 
2025-10-18 23:47:43,211 - INFO - 
2025-10-18 23:47:43,211 - INFO - Restarting solve
2025-10-18 23:47:43,211 - INFO - 
2025-10-18 23:47:43,211 - INFO - 
2025-10-18 23:47:43,212 - INFO - Gurobi Optimizer version 12.0.3 build v12.0.3rc0 (linux64 - "Ubuntu 20.04.6 LTS")
2025-10-18 23:47:43,212 - INFO - 
2025-10-18 23:47:43,212 - INFO - CPU model: Intel(R) Xeon(R) Platinum 8260 CPU @ 2.40GHz, instruction set [SSE2|AVX|AVX2|AVX512]
2025-10-18 23:47:43,212 - INFO - Thread count: 48 physical cores, 96 logical processors, using up to 12 threads
2025-10-18 23:47:43,212 - INFO - 
2025-10-18 23:47:43,212 - INFO - Non-default parameters:
2025-10-18 23:47:43,213 - INFO - TimeLimit  3600
2025-10-18 23:47:43,213 - INFO - OptimalityTol  0.0001
2025-10-18 23:47:43,213 - INFO - StartNodeLimit  10000000
2025-10-18 23:47:43,213 - INFO - Threads  12
2025-10-18 23:47:43,213 - INFO - 
2025-10-18 23:47:43,213 - INFO - Optimize a model with 5603 rows, 3584 columns and 15200 nonzeros
2025-10-18 23:47:43,213 - INFO - Model fingerprint: 0xa56993e3
2025-10-18 23:47:43,213 - INFO - Variable types: 1024 continuous, 2560 integer (2560 binary)
2025-10-18 23:47:43,213 - INFO - Coefficient statistics:
2025-10-18 23:47:43,213 - INFO -   Matrix range     [1e+00, 2e+15]
2025-10-18 23:47:43,213 - INFO -   Objective range  [4e+04, 2e+06]
2025-10-18 23:47:43,213 - INFO -   Bounds range     [1e+00, 9e+15]
2025-10-18 23:47:43,213 - INFO -   RHS range        [1e+00, 9e+15]
2025-10-18 23:47:43,213 - INFO - Warning: Model contains large matrix coefficient range
2025-10-18 23:47:43,213 - INFO - Warning: Model contains large rhs
2025-10-18 23:47:43,213 - INFO - Warning: Model contains large bounds
2025-10-18 23:47:43,213 - INFO -          Consider reformulating model or setting NumericFocus parameter
2025-10-18 23:47:43,213 - INFO -          to avoid numerical issues.
2025-10-18 23:47:43,227 - INFO - Presolve removed 4283 rows and 1964 columns
2025-10-18 23:47:43,227 - INFO - Presolve time: 0.01s
2025-10-18 23:47:43,227 - INFO - Presolved: 1320 rows, 1620 columns, 4514 nonzeros
2025-10-18 23:47:43,228 - INFO - Variable types: 0 continuous, 1620 integer (1095 binary)
2025-10-18 23:47:43,238 - INFO - 
2025-10-18 23:47:43,238 - INFO - Root relaxation: objective 2.899885e+07, 411 iterations, 0.00 seconds (0.00 work units)
2025-10-18 23:47:43,244 - INFO - 
2025-10-18 23:47:43,244 - INFO -     Nodes    |    Current Node    |     Objective Bounds      |     Work
2025-10-18 23:47:43,244 - INFO -  Expl Unexpl |  Obj  Depth IntInf | Incumbent    BestBd   Gap | It/Node Time
2025-10-18 23:47:43,244 - INFO - 
2025-10-18 23:47:43,244 - INFO -      0     0 2.8999e+07    0  328          - 2.8999e+07      -     -    0s
2025-10-18 23:47:43,246 - INFO - H    0     0                    3.108820e+07 2.8999e+07  6.72%     -    0s
2025-10-18 23:47:43,282 - INFO -      0     0 2.9237e+07    0  275 3.1088e+07 2.9237e+07  5.96%     -    0s
2025-10-18 23:47:43,296 - INFO - H    0     0                    2.966158e+07 2.9237e+07  1.43%     -    0s
2025-10-18 23:47:43,304 - INFO -      0     0 2.9357e+07    0  357 2.9662e+07 2.9357e+07  1.03%     -    0s
2025-10-18 23:47:43,323 - INFO -      0     0 2.9357e+07    0   61 2.9662e+07 2.9357e+07  1.03%     -    0s
2025-10-18 23:47:43,333 - INFO - H    0     0                    2.961559e+07 2.9357e+07  0.87%     -    0s
2025-10-18 23:47:43,334 - INFO -      0     0     cutoff    0      2.9616e+07 2.9616e+07  0.00%     -    0s
2025-10-18 23:47:43,335 - INFO - 
2025-10-18 23:47:43,335 - INFO - Cutting planes:
2025-10-18 23:47:43,335 - INFO -   Cover: 5
2025-10-18 23:47:43,336 - INFO -   GUB cover: 2
2025-10-18 23:47:43,336 - INFO -   Relax-and-lift: 3
2025-10-18 23:47:43,336 - INFO - 
2025-10-18 23:47:43,336 - INFO - Explored 1 nodes (721 simplex iterations) in 0.12 seconds (0.06 work units)
2025-10-18 23:47:43,336 - INFO - Thread count was 12 (of 96 available processors)
2025-10-18 23:47:43,336 - INFO - 
2025-10-18 23:47:43,336 - INFO - Solution count 3: 2.96156e+07 2.96616e+07 3.10882e+07 
2025-10-18 23:47:43,336 - INFO - 
2025-10-18 23:47:43,336 - INFO - Optimal solution found (tolerance 1.00e-04)
2025-10-18 23:47:43,336 - INFO - Best objective 2.961558900000e+07, best bound 2.961558900000e+07, gap 0.0000%
2025-10-18 23:47:43,347 - INFO - 规划前的显存GB：8.0
2025-10-18 23:47:43,347 - INFO - 规划后的显存GB：6.872981071472168
2025-10-18 23:47:43,347 - INFO - ✅ 最优策略：[1, 1, 1, 1, 1, 0, 1, 0, 0, 1, 0, 0, 0, 0, 0, 0]
2025-10-18 23:47:43,347 - INFO - 📌 checkpoint 的欧氏长度:, [717, 957]
2025-10-18 23:47:43,347 - INFO - 📌 checkpoint 的余弦长度:, [119, 358, 478, 597, 717, 837, 957]
2025-10-18 23:47:43,347 - INFO - 💾 最终显存峰值：%.2f MB % 14191.99333190918
2025-10-18 23:47:43,347 - INFO - Epoch 2 completed in 0.813635 seconds
2025-10-18 23:47:43,347 - INFO - torch.cuda.max_memory_reserved() : 7.45703125
2025-10-18 23:47:43,824 - INFO - Epoch 3 completed in 0.475769 seconds
2025-10-18 23:47:43,824 - INFO - 
====================== [第1个 Epoch 收集统计数据] ======================
2025-10-18 23:47:43,824 - INFO - 
🔍 EUCLIDEAN modules:
2025-10-18 23:47:43,824 - INFO - [Shapelet 119] forward_avg=0.017689s over 2 calls | peak=574.44MB | final=0.00MB
2025-10-18 23:47:43,824 - INFO - [Shapelet 238] forward_avg=0.010386s over 2 calls | peak=1015.43MB | final=0.00MB
2025-10-18 23:47:43,824 - INFO - [Shapelet 358] forward_avg=0.017649s over 2 calls | peak=1333.82MB | final=0.00MB
2025-10-18 23:47:43,825 - INFO - [Shapelet 478] forward_avg=0.018918s over 2 calls | peak=1527.39MB | final=0.00MB
2025-10-18 23:47:43,825 - INFO - [Shapelet 597] forward_avg=0.019564s over 2 calls | peak=1593.80MB | final=0.00MB
2025-10-18 23:47:43,825 - INFO - [Shapelet 717] forward_avg=0.017046s over 2 calls | peak=1532.89MB | final=0.00MB
2025-10-18 23:47:43,825 - INFO - [Shapelet 837] forward_avg=0.014266s over 2 calls | peak=1346.26MB | final=0.00MB
2025-10-18 23:47:43,825 - INFO - [Shapelet 957] forward_avg=0.011662s over 2 calls | peak=1033.37MB | final=0.00MB
2025-10-18 23:47:43,825 - INFO - 
🔍 COSINE modules:
2025-10-18 23:47:43,825 - INFO - [Shapelet 119] forward_avg=0.001923s over 2 calls | peak=377.76MB | final=0.00MB
2025-10-18 23:47:43,825 - INFO - [Shapelet 238] forward_avg=0.003016s over 2 calls | peak=670.78MB | final=0.00MB
2025-10-18 23:47:43,825 - INFO - [Shapelet 358] forward_avg=0.004868s over 2 calls | peak=882.25MB | final=0.00MB
2025-10-18 23:47:43,825 - INFO - [Shapelet 478] forward_avg=0.007104s over 2 calls | peak=1010.33MB | final=0.00MB
2025-10-18 23:47:43,826 - INFO - [Shapelet 597] forward_avg=0.007946s over 2 calls | peak=1052.88MB | final=0.00MB
2025-10-18 23:47:43,826 - INFO - [Shapelet 717] forward_avg=0.004342s over 2 calls | peak=1012.70MB | final=0.00MB
2025-10-18 23:47:43,826 - INFO - [Shapelet 837] forward_avg=0.003890s over 2 calls | peak=885.75MB | final=0.00MB
2025-10-18 23:47:43,826 - INFO - [Shapelet 957] forward_avg=0.003061s over 2 calls | peak=676.20MB | final=0.00MB
2025-10-18 23:47:43,826 - INFO - 
🔍 CROSS modules:
2025-10-18 23:47:43,826 - INFO - [Shapelet 119] forward_avg=0.000392s over 2 calls
2025-10-18 23:47:43,826 - INFO - [Shapelet 238] forward_avg=0.000460s over 2 calls
2025-10-18 23:47:43,826 - INFO - [Shapelet 358] forward_avg=0.000592s over 2 calls
2025-10-18 23:47:43,826 - INFO - [Shapelet 478] forward_avg=0.000734s over 2 calls
2025-10-18 23:47:43,827 - INFO - [Shapelet 597] forward_avg=0.000616s over 2 calls
2025-10-18 23:47:43,827 - INFO - [Shapelet 717] forward_avg=0.000563s over 2 calls
2025-10-18 23:47:43,827 - INFO - [Shapelet 837] forward_avg=0.000614s over 2 calls
2025-10-18 23:47:43,827 - INFO - [Shapelet 957] forward_avg=0.000545s over 2 calls
2025-10-18 23:47:43,827 - INFO - 
💾 模型第一次反向传播阶段的显存峰值（所有模块中的最大值）: 6434.87 MB
2025-10-18 23:47:43,827 - INFO - 
💾 模型初始显存: 9.69 MB
2025-10-18 23:47:43,827 - INFO - =======================================================================

2025-10-18 23:47:43,828 - INFO - torch.cuda.max_memory_reserved() : 7.45703125
2025-10-18 23:47:44,326 - INFO - Epoch 4 completed in 0.498022 seconds
2025-10-18 23:47:44,327 - INFO - torch.cuda.max_memory_reserved() : 8.794921875
2025-10-18 23:47:44,834 - INFO - Epoch 5 completed in 0.506207 seconds
2025-10-18 23:47:44,835 - INFO - torch.cuda.max_memory_reserved() : 8.794921875
2025-10-18 23:47:45,298 - INFO - Epoch 6 completed in 0.463359 seconds
2025-10-18 23:47:45,299 - INFO - torch.cuda.max_memory_reserved() : 8.794921875
2025-10-18 23:47:45,746 - INFO - Epoch 7 completed in 0.445906 seconds
2025-10-18 23:47:45,747 - INFO - torch.cuda.max_memory_reserved() : 8.794921875
2025-10-18 23:47:46,249 - INFO - Epoch 8 completed in 0.500783 seconds
2025-10-18 23:47:46,250 - INFO - torch.cuda.max_memory_reserved() : 8.794921875
2025-10-18 23:47:46,764 - INFO - Epoch 9 completed in 0.512647 seconds
2025-10-18 23:47:46,765 - INFO - torch.cuda.max_memory_reserved() : 8.794921875
2025-10-18 23:47:47,261 - INFO - Epoch 10 completed in 0.496093 seconds
2025-10-18 23:47:47,703 - INFO - torch.cuda.max_memory_reserved() : 8.794921875
2025-10-18 23:47:47,703 - INFO - !!!采用策略后的几个epoch 平均时间:0.4873483180999756
2025-10-18 23:47:47,704 - INFO - 



